************************************************************************
file with basedata            : mm50_.bas
initial value random generator: 1256871276
************************************************************************
projects                      :  1
jobs (incl. supersource/sink ):  12
horizon                       :  76
RESOURCES
  - renewable                 :  2   R
  - nonrenewable              :  2   N
  - doubly constrained        :  0   D
************************************************************************
PROJECT INFORMATION:
pronr.  #jobs rel.date duedate tardcost  MPM-Time
    1     10      0        9        4        9
************************************************************************
PRECEDENCE RELATIONS:
jobnr.    #modes  #successors   successors
   0        1          3           1   2   3
   1        3          1           7
   2        3          2           5   9
   3        3          2           4   6
   4        3          2           8   9
   5        3          1          10
   6        3          1           8
   7        3          3           8   9  10
   8        3          1          11
   9        3          1          11
  10        3          1          11
  11        1          0        
************************************************************************
REQUESTS/DURATIONS:
jobnr. mode duration  R 1  R 2  R 3  R 4  E(W 1)  E(W 2)  E(W 3)
------------------------------------------------------------------------
  0      1     0       0    0    0    0     0       0       0
  1      1     4       9    5    0    8    56       0      32
  2      1     4       8    7    0    5    60       0      20
  3      1     2       6   10    0    7    32       0      14
  4      1     4       9    9    5    0    72      20       0
  5      1     1       5    8    5    0    13       5       0
  6      1     2       7    8    4    0    30       8       0
  7      1     1       6    4    4    0    10       4       0
  8      1     1       9    9    5    0    18       5       0
  9      1     3       4    9    0    5    39       0      15
 10      1     4       5   10    6    0    60      24       0
 11      1     0       0    0    0    0     0       0       0
************************************************************************
RESOURCEAVAILABILITIES:
  R 1  R 2  R 3
   49   23   36
************************************************************************
RESOURCE LIMITS:
jobnr.  l(R 1)  u(R 1)  l(R 2)  u(R 2)  l(R 3)  u(R 3)
------------------------------------------------------------------------
  0        0       0       0       0       0       0
  1        8      14       0       0       4       8
  2        8      15       0       0       3       5
  3        8      16       0       0       4       7
  4       10      18       3       5       0       0
  5        7      13       3       5       0       0
  6        8      15       2       4       0       0
  7        5      10       2       4       0       0
  8       10      18       3       5       0       0
  9        7      13       0       0       3       5
 10        8      15       3       6       0       0
 11        0       0       0       0       0       0
************************************************************************
SCENARIOS:
------------------------------------------------------------------------
RESOURCE k = 1
s = 1: (0, 61, 64, 44, 92, 13, 29, 12, 20, 31, 73, 0)
s = 2: (0, 58, 73, 34, 50, 14, 24, 13, 20, 34, 48, 0)
s = 3: (0, 60, 69, 21, 71, 14, 33, 6, 23, 40, 45, 0)
s = 4: (0, 60, 39, 19, 73, 14, 23, 11, 23, 41, 50, 0)
s = 5: (0, 34, 86, 36, 98, 9, 45, 11, 19, 47, 88, 0)
s = 6: (0, 49, 92, 44, 88, 12, 44, 11, 15, 42, 68, 0)
s = 7: (0, 54, 93, 48, 51, 17, 33, 17, 11, 29, 59, 0)
s = 8: (0, 56, 56, 44, 59, 10, 29, 9, 22, 32, 68, 0)
s = 9: (0, 43, 44, 41, 128, 13, 17, 12, 17, 30, 66, 0)
s = 10: (0, 43, 50, 26, 49, 18, 38, 8, 15, 59, 71, 0)
s = 11: (0, 67, 84, 39, 100, 13, 37, 8, 19, 47, 59, 0)
s = 12: (0, 62, 68, 27, 52, 10, 24, 11, 19, 27, 62, 0)
s = 13: (0, 49, 55, 32, 50, 10, 27, 8, 15, 58, 90, 0)
s = 14: (0, 51, 58, 41, 68, 9, 30, 10, 16, 27, 40, 0)
s = 15: (0, 65, 44, 33, 63, 10, 24, 8, 28, 34, 42, 0)
s = 16: (0, 47, 66, 23, 56, 12, 23, 8, 24, 28, 93, 0)
s = 17: (0, 33, 49, 28, 49, 21, 21, 9, 14, 24, 58, 0)
s = 18: (0, 68, 73, 29, 65, 13, 33, 7, 17, 30, 55, 0)
s = 19: (0, 57, 70, 19, 109, 12, 21, 11, 17, 50, 54, 0)
s = 20: (0, 61, 46, 31, 55, 10, 28, 7, 20, 37, 48, 0)
s = 21: (0, 52, 43, 21, 68, 12, 17, 6, 16, 31, 51, 0)
s = 22: (0, 48, 62, 56, 44, 9, 26, 15, 27, 44, 47, 0)
s = 23: (0, 31, 61, 35, 57, 11, 25, 6, 21, 52, 67, 0)
s = 24: (0, 69, 109, 43, 73, 18, 25, 8, 29, 35, 88, 0)
s = 25: (0, 87, 45, 23, 95, 9, 54, 10, 17, 34, 73, 0)
s = 26: (0, 33, 67, 32, 101, 14, 29, 8, 29, 29, 60, 0)
s = 27: (0, 50, 53, 18, 85, 19, 24, 9, 25, 45, 83, 0)
s = 28: (0, 59, 47, 42, 62, 12, 26, 6, 16, 32, 35, 0)
s = 29: (0, 44, 54, 52, 62, 9, 32, 11, 15, 43, 68, 0)
s = 30: (0, 64, 45, 43, 100, 11, 29, 6, 29, 47, 69, 0)
s = 31: (0, 40, 44, 34, 55, 12, 16, 16, 19, 39, 33, 0)
s = 32: (0, 57, 59, 44, 67, 18, 40, 15, 13, 25, 62, 0)
s = 33: (0, 47, 40, 39, 47, 13, 34, 9, 18, 23, 59, 0)
s = 34: (0, 54, 60, 32, 112, 14, 36, 6, 16, 39, 63, 0)
s = 35: (0, 78, 44, 49, 96, 10, 29, 13, 24, 40, 45, 0)
s = 36: (0, 67, 51, 24, 63, 24, 42, 8, 20, 57, 59, 0)
s = 37: (0, 33, 44, 45, 60, 17, 47, 10, 22, 47, 84, 0)
s = 38: (0, 72, 74, 40, 62, 16, 22, 9, 20, 55, 67, 0)
s = 39: (0, 64, 31, 33, 104, 10, 33, 6, 22, 58, 59, 0)
s = 40: (0, 48, 40, 27, 72, 12, 39, 14, 14, 40, 57, 0)
s = 41: (0, 61, 70, 33, 99, 11, 16, 15, 17, 47, 68, 0)
s = 42: (0, 33, 76, 43, 80, 13, 29, 10, 27, 72, 82, 0)
s = 43: (0, 44, 65, 41, 44, 16, 40, 11, 16, 24, 38, 0)
s = 44: (0, 33, 51, 36, 62, 19, 32, 8, 34, 47, 49, 0)
s = 45: (0, 72, 57, 42, 69, 10, 36, 10, 14, 37, 36, 0)
s = 46: (0, 62, 44, 24, 88, 11, 27, 11, 27, 30, 81, 0)
s = 47: (0, 55, 58, 30, 83, 12, 34, 9, 29, 31, 44, 0)
s = 48: (0, 49, 46, 22, 112, 24, 27, 9, 29, 34, 59, 0)
s = 49: (0, 50, 91, 37, 112, 16, 27, 15, 30, 78, 49, 0)
s = 50: (0, 65, 50, 47, 71, 11, 38, 17, 20, 26, 72, 0)
s = 51: (0, 46, 58, 31, 58, 17, 41, 8, 12, 35, 59, 0)
s = 52: (0, 47, 54, 41, 88, 10, 40, 12, 14, 28, 65, 0)
s = 53: (0, 72, 34, 30, 113, 13, 30, 14, 12, 56, 70, 0)
s = 54: (0, 66, 54, 30, 44, 14, 32, 10, 33, 29, 73, 0)
s = 55: (0, 62, 53, 21, 105, 10, 19, 8, 11, 21, 35, 0)
s = 56: (0, 55, 58, 43, 67, 17, 26, 12, 18, 40, 95, 0)
s = 57: (0, 93, 71, 20, 66, 13, 27, 8, 15, 35, 59, 0)
s = 58: (0, 38, 52, 45, 59, 13, 29, 13, 26, 26, 76, 0)
s = 59: (0, 48, 49, 29, 90, 17, 38, 8, 15, 36, 73, 0)
s = 60: (0, 61, 51, 45, 76, 8, 27, 11, 15, 47, 53, 0)
s = 61: (0, 70, 64, 22, 66, 12, 24, 10, 24, 32, 70, 0)
s = 62: (0, 94, 42, 36, 85, 13, 23, 10, 31, 35, 43, 0)
s = 63: (0, 62, 80, 30, 72, 14, 20, 8, 13, 29, 68, 0)
s = 64: (0, 76, 63, 26, 98, 12, 36, 8, 14, 30, 84, 0)
s = 65: (0, 58, 42, 21, 70, 16, 21, 8, 17, 42, 48, 0)
s = 66: (0, 50, 62, 31, 58, 14, 31, 9, 26, 35, 40, 0)
s = 67: (0, 45, 44, 24, 74, 8, 37, 9, 29, 57, 62, 0)
s = 68: (0, 64, 60, 36, 62, 16, 26, 14, 16, 42, 36, 0)
s = 69: (0, 66, 81, 34, 64, 16, 30, 7, 18, 54, 74, 0)
s = 70: (0, 57, 84, 35, 87, 15, 41, 8, 12, 34, 76, 0)
s = 71: (0, 56, 78, 37, 74, 10, 29, 14, 26, 58, 87, 0)
s = 72: (0, 47, 69, 44, 78, 9, 49, 11, 16, 31, 79, 0)
s = 73: (0, 101, 73, 37, 70, 16, 29, 14, 18, 31, 49, 0)
s = 74: (0, 47, 39, 24, 73, 15, 28, 16, 23, 44, 37, 0)
s = 75: (0, 36, 44, 23, 75, 9, 17, 10, 20, 42, 39, 0)
s = 76: (0, 41, 62, 39, 65, 18, 36, 15, 16, 49, 63, 0)
s = 77: (0, 74, 44, 37, 87, 14, 34, 15, 29, 27, 54, 0)
s = 78: (0, 45, 52, 47, 71, 12, 18, 9, 25, 57, 59, 0)
s = 79: (0, 60, 97, 46, 82, 10, 20, 8, 24, 39, 96, 0)
s = 80: (0, 39, 78, 23, 77, 17, 27, 11, 14, 50, 57, 0)
s = 81: (0, 43, 75, 22, 84, 12, 27, 16, 25, 52, 61, 0)
s = 82: (0, 35, 82, 36, 87, 16, 25, 10, 26, 43, 68, 0)
s = 83: (0, 49, 46, 17, 89, 9, 41, 9, 18, 41, 51, 0)
s = 84: (0, 49, 52, 37, 57, 10, 45, 12, 15, 58, 71, 0)
s = 85: (0, 54, 86, 38, 62, 20, 37, 11, 15, 33, 47, 0)
s = 86: (0, 54, 47, 28, 52, 9, 45, 10, 18, 35, 44, 0)
s = 87: (0, 59, 63, 25, 115, 16, 16, 13, 19, 53, 44, 0)
s = 88: (0, 70, 58, 48, 74, 8, 27, 12, 19, 41, 44, 0)
s = 89: (0, 73, 98, 19, 124, 13, 28, 12, 16, 24, 66, 0)
s = 90: (0, 37, 75, 28, 80, 13, 52, 11, 11, 21, 48, 0)
s = 91: (0, 63, 77, 31, 93, 10, 31, 9, 17, 46, 51, 0)
s = 92: (0, 51, 42, 27, 94, 10, 36, 16, 14, 50, 62, 0)
s = 93: (0, 50, 50, 39, 77, 11, 23, 11, 15, 40, 50, 0)
s = 94: (0, 72, 59, 43, 68, 10, 37, 9, 15, 40, 73, 0)
s = 95: (0, 45, 57, 24, 45, 15, 47, 13, 16, 23, 84, 0)
s = 96: (0, 50, 31, 39, 88, 19, 32, 10, 27, 31, 67, 0)
s = 97: (0, 63, 47, 32, 43, 21, 31, 12, 18, 32, 53, 0)
s = 98: (0, 76, 58, 32, 49, 9, 21, 10, 11, 26, 44, 0)
s = 99: (0, 69, 65, 51, 96, 8, 31, 13, 16, 40, 45, 0)
s = 100: (0, 50, 47, 47, 82, 16, 27, 12, 14, 39, 41, 0)
s = 101: (0, 67, 78, 39, 87, 21, 33, 14, 13, 25, 72, 0)
s = 102: (0, 59, 59, 27, 106, 17, 29, 11, 15, 43, 70, 0)
s = 103: (0, 72, 66, 33, 66, 14, 27, 13, 34, 33, 51, 0)
s = 104: (0, 68, 31, 24, 56, 10, 28, 13, 15, 31, 66, 0)
s = 105: (0, 62, 45, 29, 81, 16, 30, 10, 13, 26, 80, 0)
s = 106: (0, 52, 43, 28, 101, 9, 45, 16, 23, 63, 107, 0)
s = 107: (0, 41, 73, 28, 78, 19, 37, 12, 23, 36, 68, 0)
s = 108: (0, 57, 48, 40, 70, 15, 17, 11, 14, 35, 62, 0)
s = 109: (0, 36, 33, 19, 63, 11, 29, 10, 12, 54, 84, 0)
s = 110: (0, 92, 58, 40, 56, 9, 45, 9, 20, 28, 59, 0)
s = 111: (0, 64, 42, 47, 85, 20, 24, 7, 21, 23, 59, 0)
s = 112: (0, 54, 78, 53, 75, 10, 25, 14, 22, 39, 62, 0)
s = 113: (0, 35, 95, 38, 83, 11, 24, 10, 20, 43, 40, 0)
s = 114: (0, 62, 61, 22, 99, 10, 27, 10, 14, 41, 56, 0)
s = 115: (0, 35, 61, 35, 111, 15, 27, 9, 21, 38, 66, 0)
s = 116: (0, 57, 72, 43, 57, 13, 48, 14, 19, 34, 56, 0)
s = 117: (0, 61, 85, 42, 56, 18, 24, 7, 20, 44, 56, 0)
s = 118: (0, 80, 62, 24, 38, 9, 16, 13, 17, 40, 51, 0)
s = 119: (0, 77, 73, 23, 124, 13, 31, 13, 15, 33, 48, 0)
s = 120: (0, 48, 70, 51, 81, 18, 23, 14, 14, 39, 32, 0)
s = 121: (0, 88, 99, 40, 55, 15, 39, 12, 14, 48, 53, 0)
s = 122: (0, 70, 78, 30, 103, 18, 24, 8, 14, 61, 84, 0)
s = 123: (0, 36, 36, 26, 64, 21, 35, 7, 24, 51, 64, 0)
s = 124: (0, 52, 32, 43, 102, 12, 31, 6, 23, 52, 60, 0)
s = 125: (0, 56, 63, 41, 71, 10, 41, 11, 17, 34, 66, 0)
s = 126: (0, 30, 71, 26, 106, 12, 22, 9, 17, 36, 69, 0)
s = 127: (0, 66, 52, 28, 57, 13, 35, 7, 20, 45, 76, 0)
s = 128: (0, 69, 57, 28, 87, 10, 40, 7, 25, 40, 55, 0)
s = 129: (0, 43, 73, 27, 79, 14, 42, 8, 22, 57, 44, 0)
s = 130: (0, 101, 51, 31, 54, 9, 27, 10, 18, 46, 62, 0)
s = 131: (0, 80, 40, 40, 83, 15, 26, 15, 15, 49, 63, 0)
s = 132: (0, 71, 65, 42, 67, 15, 29, 8, 26, 56, 67, 0)
s = 133: (0, 39, 40, 24, 79, 12, 26, 11, 19, 33, 41, 0)
s = 134: (0, 68, 55, 33, 104, 14, 23, 14, 23, 38, 59, 0)
s = 135: (0, 30, 37, 20, 69, 16, 27, 12, 16, 29, 65, 0)
s = 136: (0, 57, 63, 38, 88, 14, 21, 7, 16, 27, 64, 0)
s = 137: (0, 60, 45, 24, 61, 16, 26, 8, 11, 51, 61, 0)
s = 138: (0, 39, 68, 48, 92, 13, 22, 7, 15, 39, 47, 0)
s = 139: (0, 53, 71, 44, 51, 15, 27, 9, 13, 53, 65, 0)
s = 140: (0, 46, 78, 34, 78, 16, 40, 9, 30, 42, 65, 0)
s = 141: (0, 41, 78, 44, 86, 16, 47, 15, 15, 44, 37, 0)
s = 142: (0, 41, 48, 22, 62, 13, 37, 15, 12, 50, 79, 0)
s = 143: (0, 56, 58, 25, 61, 8, 25, 9, 17, 40, 61, 0)
s = 144: (0, 94, 64, 36, 86, 9, 26, 10, 14, 26, 47, 0)
s = 145: (0, 49, 53, 32, 109, 10, 36, 13, 20, 37, 43, 0)
s = 146: (0, 58, 47, 41, 88, 19, 36, 8, 21, 34, 73, 0)
s = 147: (0, 65, 56, 29, 58, 23, 28, 13, 17, 71, 59, 0)
s = 148: (0, 56, 64, 53, 66, 14, 32, 12, 12, 60, 50, 0)
s = 149: (0, 70, 38, 37, 126, 11, 19, 12, 14, 26, 73, 0)
s = 150: (0, 72, 93, 39, 63, 17, 27, 10, 18, 44, 93, 0)
s = 151: (0, 95, 86, 40, 70, 17, 25, 6, 13, 34, 87, 0)
s = 152: (0, 43, 37, 33, 48, 12, 25, 8, 25, 40, 99, 0)
s = 153: (0, 44, 60, 28, 53, 18, 26, 10, 20, 33, 43, 0)
s = 154: (0, 62, 70, 35, 55, 13, 26, 7, 17, 28, 34, 0)
s = 155: (0, 49, 69, 37, 85, 11, 17, 6, 18, 55, 55, 0)
s = 156: (0, 89, 64, 47, 76, 10, 32, 6, 24, 65, 89, 0)
s = 157: (0, 33, 60, 37, 89, 14, 29, 7, 14, 50, 40, 0)
s = 158: (0, 49, 55, 28, 47, 10, 28, 8, 24, 29, 50, 0)
s = 159: (0, 57, 32, 29, 63, 17, 27, 8, 12, 44, 59, 0)
s = 160: (0, 45, 45, 40, 79, 11, 38, 8, 12, 43, 65, 0)
s = 161: (0, 65, 39, 20, 53, 14, 44, 11, 38, 31, 69, 0)
s = 162: (0, 53, 64, 26, 85, 10, 29, 11, 22, 39, 35, 0)
s = 163: (0, 70, 40, 23, 83, 14, 31, 6, 17, 42, 73, 0)
s = 164: (0, 68, 84, 32, 90, 16, 35, 10, 24, 56, 55, 0)
s = 165: (0, 49, 56, 24, 95, 17, 38, 15, 33, 28, 57, 0)
s = 166: (0, 54, 69, 35, 64, 10, 23, 9, 18, 27, 65, 0)
s = 167: (0, 53, 89, 41, 65, 11, 37, 9, 33, 31, 53, 0)
s = 168: (0, 52, 52, 45, 42, 17, 33, 16, 17, 41, 61, 0)
s = 169: (0, 61, 56, 22, 67, 10, 40, 6, 22, 28, 87, 0)
s = 170: (0, 61, 35, 52, 43, 18, 28, 8, 13, 41, 55, 0)
s = 171: (0, 59, 61, 24, 71, 13, 35, 10, 15, 65, 62, 0)
s = 172: (0, 95, 60, 29, 57, 8, 31, 8, 13, 45, 56, 0)
s = 173: (0, 42, 54, 26, 75, 11, 45, 11, 25, 41, 64, 0)
s = 174: (0, 59, 32, 36, 70, 11, 61, 9, 20, 31, 48, 0)
s = 175: (0, 40, 65, 30, 90, 15, 27, 8, 23, 28, 66, 0)
s = 176: (0, 73, 46, 25, 72, 12, 20, 8, 35, 40, 68, 0)
s = 177: (0, 36, 105, 32, 58, 12, 40, 8, 21, 38, 54, 0)
s = 178: (0, 57, 71, 22, 70, 14, 34, 9, 10, 43, 69, 0)
s = 179: (0, 40, 45, 37, 97, 11, 19, 9, 16, 42, 49, 0)
s = 180: (0, 44, 87, 33, 73, 16, 24, 9, 12, 37, 110, 0)
s = 181: (0, 55, 52, 35, 64, 14, 28, 7, 18, 34, 55, 0)
s = 182: (0, 76, 38, 31, 62, 8, 33, 13, 11, 29, 62, 0)
s = 183: (0, 37, 38, 28, 47, 15, 34, 13, 23, 48, 91, 0)
s = 184: (0, 39, 53, 36, 50, 7, 31, 8, 13, 24, 69, 0)
s = 185: (0, 37, 70, 25, 100, 13, 25, 11, 12, 66, 106, 0)
s = 186: (0, 40, 56, 18, 86, 10, 38, 8, 10, 75, 32, 0)
s = 187: (0, 35, 96, 35, 52, 9, 29, 13, 29, 65, 57, 0)
s = 188: (0, 65, 81, 48, 71, 14, 31, 8, 22, 42, 67, 0)
s = 189: (0, 41, 44, 31, 80, 15, 46, 13, 11, 43, 65, 0)
s = 190: (0, 42, 86, 24, 56, 11, 26, 7, 17, 38, 88, 0)
s = 191: (0, 35, 60, 31, 107, 11, 19, 10, 21, 24, 85, 0)
s = 192: (0, 40, 51, 23, 47, 13, 38, 13, 22, 36, 62, 0)
s = 193: (0, 61, 71, 24, 107, 9, 26, 8, 19, 27, 113, 0)
s = 194: (0, 83, 71, 40, 85, 13, 34, 11, 15, 23, 90, 0)
s = 195: (0, 89, 47, 59, 45, 8, 34, 11, 13, 30, 84, 0)
s = 196: (0, 54, 84, 40, 57, 13, 24, 11, 19, 29, 61, 0)
s = 197: (0, 89, 99, 29, 68, 17, 51, 11, 11, 27, 37, 0)
s = 198: (0, 54, 69, 31, 65, 14, 29, 10, 12, 30, 55, 0)
s = 199: (0, 74, 83, 21, 56, 8, 44, 12, 24, 37, 86, 0)
s = 200: (0, 72, 54, 45, 48, 14, 36, 8, 15, 49, 75, 0)
------------------------------------------------------------------------
RESOURCE k = 2
s = 1: (0, 0, 0, 0, 26, 5, 8, 5, 6, 0, 30, 0)
s = 2: (0, 0, 0, 0, 14, 6, 7, 5, 6, 0, 19, 0)
s = 3: (0, 0, 0, 0, 20, 6, 9, 3, 7, 0, 18, 0)
s = 4: (0, 0, 0, 0, 21, 6, 7, 5, 7, 0, 20, 0)
s = 5: (0, 0, 0, 0, 28, 4, 12, 5, 6, 0, 36, 0)
s = 6: (0, 0, 0, 0, 25, 5, 12, 5, 5, 0, 28, 0)
s = 7: (0, 0, 0, 0, 15, 7, 9, 7, 3, 0, 24, 0)
s = 8: (0, 0, 0, 0, 17, 4, 8, 4, 7, 0, 28, 0)
s = 9: (0, 0, 0, 0, 36, 5, 5, 5, 5, 0, 27, 0)
s = 10: (0, 0, 0, 0, 14, 7, 11, 4, 5, 0, 29, 0)
s = 11: (0, 0, 0, 0, 28, 5, 10, 3, 6, 0, 24, 0)
s = 12: (0, 0, 0, 0, 15, 4, 7, 5, 6, 0, 25, 0)
s = 13: (0, 0, 0, 0, 14, 4, 8, 4, 5, 0, 36, 0)
s = 14: (0, 0, 0, 0, 19, 4, 8, 4, 5, 0, 16, 0)
s = 15: (0, 0, 0, 0, 18, 4, 7, 4, 8, 0, 17, 0)
s = 16: (0, 0, 0, 0, 16, 5, 6, 3, 7, 0, 38, 0)
s = 17: (0, 0, 0, 0, 14, 8, 6, 4, 4, 0, 23, 0)
s = 18: (0, 0, 0, 0, 19, 5, 9, 3, 5, 0, 22, 0)
s = 19: (0, 0, 0, 0, 31, 5, 6, 5, 5, 0, 22, 0)
s = 20: (0, 0, 0, 0, 16, 4, 8, 3, 6, 0, 20, 0)
s = 21: (0, 0, 0, 0, 19, 5, 5, 3, 5, 0, 21, 0)
s = 22: (0, 0, 0, 0, 13, 4, 7, 6, 8, 0, 19, 0)
s = 23: (0, 0, 0, 0, 16, 4, 7, 3, 6, 0, 27, 0)
s = 24: (0, 0, 0, 0, 21, 7, 7, 4, 8, 0, 36, 0)
s = 25: (0, 0, 0, 0, 27, 4, 15, 4, 5, 0, 30, 0)
s = 26: (0, 0, 0, 0, 28, 6, 8, 4, 8, 0, 24, 0)
s = 27: (0, 0, 0, 0, 24, 7, 7, 4, 7, 0, 33, 0)
s = 28: (0, 0, 0, 0, 18, 5, 7, 3, 5, 0, 14, 0)
s = 29: (0, 0, 0, 0, 17, 4, 9, 5, 4, 0, 27, 0)
s = 30: (0, 0, 0, 0, 28, 5, 8, 3, 9, 0, 28, 0)
s = 31: (0, 0, 0, 0, 16, 5, 5, 7, 6, 0, 14, 0)
s = 32: (0, 0, 0, 0, 19, 7, 11, 6, 4, 0, 25, 0)
s = 33: (0, 0, 0, 0, 13, 5, 9, 4, 5, 0, 24, 0)
s = 34: (0, 0, 0, 0, 31, 6, 10, 3, 5, 0, 25, 0)
s = 35: (0, 0, 0, 0, 27, 4, 8, 6, 7, 0, 18, 0)
s = 36: (0, 0, 0, 0, 18, 9, 11, 4, 6, 0, 24, 0)
s = 37: (0, 0, 0, 0, 17, 7, 13, 4, 6, 0, 34, 0)
s = 38: (0, 0, 0, 0, 18, 7, 6, 4, 6, 0, 27, 0)
s = 39: (0, 0, 0, 0, 29, 4, 9, 3, 7, 0, 24, 0)
s = 40: (0, 0, 0, 0, 20, 5, 11, 6, 4, 0, 23, 0)
s = 41: (0, 0, 0, 0, 28, 5, 5, 6, 5, 0, 28, 0)
s = 42: (0, 0, 0, 0, 23, 5, 8, 4, 8, 0, 33, 0)
s = 43: (0, 0, 0, 0, 12, 6, 11, 5, 5, 0, 16, 0)
s = 44: (0, 0, 0, 0, 18, 7, 9, 3, 10, 0, 20, 0)
s = 45: (0, 0, 0, 0, 20, 4, 10, 4, 4, 0, 15, 0)
s = 46: (0, 0, 0, 0, 25, 4, 8, 5, 8, 0, 33, 0)
s = 47: (0, 0, 0, 0, 24, 5, 9, 4, 8, 0, 18, 0)
s = 48: (0, 0, 0, 0, 31, 9, 7, 4, 8, 0, 24, 0)
s = 49: (0, 0, 0, 0, 32, 6, 7, 6, 9, 0, 20, 0)
s = 50: (0, 0, 0, 0, 20, 4, 10, 7, 6, 0, 29, 0)
s = 51: (0, 0, 0, 0, 16, 7, 11, 3, 4, 0, 24, 0)
s = 52: (0, 0, 0, 0, 25, 4, 11, 5, 4, 0, 26, 0)
s = 53: (0, 0, 0, 0, 32, 5, 8, 6, 4, 0, 28, 0)
s = 54: (0, 0, 0, 0, 12, 6, 9, 4, 9, 0, 29, 0)
s = 55: (0, 0, 0, 0, 30, 4, 6, 3, 3, 0, 14, 0)
s = 56: (0, 0, 0, 0, 19, 7, 7, 5, 5, 0, 38, 0)
s = 57: (0, 0, 0, 0, 19, 5, 8, 4, 5, 0, 24, 0)
s = 58: (0, 0, 0, 0, 17, 5, 8, 6, 8, 0, 31, 0)
s = 59: (0, 0, 0, 0, 25, 7, 10, 4, 5, 0, 30, 0)
s = 60: (0, 0, 0, 0, 21, 3, 8, 5, 5, 0, 22, 0)
s = 61: (0, 0, 0, 0, 19, 5, 7, 4, 7, 0, 28, 0)
s = 62: (0, 0, 0, 0, 24, 5, 6, 4, 9, 0, 17, 0)
s = 63: (0, 0, 0, 0, 20, 6, 6, 4, 4, 0, 27, 0)
s = 64: (0, 0, 0, 0, 27, 5, 10, 4, 4, 0, 34, 0)
s = 65: (0, 0, 0, 0, 20, 6, 6, 3, 5, 0, 19, 0)
s = 66: (0, 0, 0, 0, 17, 6, 9, 4, 8, 0, 16, 0)
s = 67: (0, 0, 0, 0, 21, 4, 10, 4, 8, 0, 25, 0)
s = 68: (0, 0, 0, 0, 18, 7, 7, 6, 5, 0, 15, 0)
s = 69: (0, 0, 0, 0, 18, 7, 8, 3, 5, 0, 30, 0)
s = 70: (0, 0, 0, 0, 24, 6, 11, 3, 4, 0, 31, 0)
s = 71: (0, 0, 0, 0, 21, 4, 8, 6, 8, 0, 35, 0)
s = 72: (0, 0, 0, 0, 22, 4, 14, 5, 5, 0, 32, 0)
s = 73: (0, 0, 0, 0, 20, 6, 8, 6, 5, 0, 20, 0)
s = 74: (0, 0, 0, 0, 21, 6, 8, 7, 7, 0, 15, 0)
s = 75: (0, 0, 0, 0, 21, 4, 5, 4, 6, 0, 16, 0)
s = 76: (0, 0, 0, 0, 18, 7, 10, 6, 5, 0, 26, 0)
s = 77: (0, 0, 0, 0, 24, 6, 9, 6, 8, 0, 22, 0)
s = 78: (0, 0, 0, 0, 20, 5, 5, 4, 7, 0, 24, 0)
s = 79: (0, 0, 0, 0, 23, 4, 6, 4, 7, 0, 39, 0)
s = 80: (0, 0, 0, 0, 22, 7, 8, 5, 4, 0, 23, 0)
s = 81: (0, 0, 0, 0, 24, 5, 8, 7, 7, 0, 25, 0)
s = 82: (0, 0, 0, 0, 25, 6, 7, 4, 8, 0, 27, 0)
s = 83: (0, 0, 0, 0, 25, 4, 11, 4, 5, 0, 21, 0)
s = 84: (0, 0, 0, 0, 16, 4, 12, 5, 5, 0, 29, 0)
s = 85: (0, 0, 0, 0, 18, 8, 10, 5, 5, 0, 19, 0)
s = 86: (0, 0, 0, 0, 15, 4, 12, 4, 5, 0, 18, 0)
s = 87: (0, 0, 0, 0, 32, 6, 5, 6, 6, 0, 18, 0)
s = 88: (0, 0, 0, 0, 21, 3, 8, 5, 6, 0, 18, 0)
s = 89: (0, 0, 0, 0, 35, 5, 8, 5, 5, 0, 27, 0)
s = 90: (0, 0, 0, 0, 23, 5, 14, 5, 3, 0, 20, 0)
s = 91: (0, 0, 0, 0, 26, 4, 9, 4, 5, 0, 21, 0)
s = 92: (0, 0, 0, 0, 27, 4, 10, 7, 4, 0, 25, 0)
s = 93: (0, 0, 0, 0, 22, 4, 6, 5, 5, 0, 20, 0)
s = 94: (0, 0, 0, 0, 19, 4, 10, 4, 4, 0, 29, 0)
s = 95: (0, 0, 0, 0, 13, 6, 13, 5, 5, 0, 34, 0)
s = 96: (0, 0, 0, 0, 25, 7, 9, 4, 8, 0, 27, 0)
s = 97: (0, 0, 0, 0, 12, 8, 9, 5, 5, 0, 22, 0)
s = 98: (0, 0, 0, 0, 14, 4, 6, 4, 3, 0, 18, 0)
s = 99: (0, 0, 0, 0, 27, 3, 9, 5, 5, 0, 18, 0)
s = 100: (0, 0, 0, 0, 23, 7, 7, 5, 4, 0, 17, 0)
s = 101: (0, 0, 0, 0, 25, 9, 9, 6, 4, 0, 29, 0)
s = 102: (0, 0, 0, 0, 30, 7, 8, 5, 5, 0, 28, 0)
s = 103: (0, 0, 0, 0, 19, 6, 8, 6, 10, 0, 21, 0)
s = 104: (0, 0, 0, 0, 16, 4, 8, 6, 5, 0, 27, 0)
s = 105: (0, 0, 0, 0, 23, 7, 8, 4, 4, 0, 32, 0)
s = 106: (0, 0, 0, 0, 28, 4, 12, 7, 7, 0, 43, 0)
s = 107: (0, 0, 0, 0, 22, 8, 10, 5, 7, 0, 27, 0)
s = 108: (0, 0, 0, 0, 20, 6, 5, 5, 4, 0, 25, 0)
s = 109: (0, 0, 0, 0, 18, 4, 8, 4, 4, 0, 34, 0)
s = 110: (0, 0, 0, 0, 16, 4, 12, 4, 6, 0, 24, 0)
s = 111: (0, 0, 0, 0, 24, 8, 7, 3, 6, 0, 24, 0)
s = 112: (0, 0, 0, 0, 21, 4, 7, 6, 6, 0, 25, 0)
s = 113: (0, 0, 0, 0, 23, 5, 7, 4, 6, 0, 16, 0)
s = 114: (0, 0, 0, 0, 28, 4, 7, 4, 4, 0, 23, 0)
s = 115: (0, 0, 0, 0, 31, 6, 8, 4, 6, 0, 27, 0)
s = 116: (0, 0, 0, 0, 16, 5, 13, 6, 6, 0, 23, 0)
s = 117: (0, 0, 0, 0, 16, 7, 7, 3, 6, 0, 23, 0)
s = 118: (0, 0, 0, 0, 11, 4, 5, 6, 5, 0, 21, 0)
s = 119: (0, 0, 0, 0, 35, 5, 9, 5, 4, 0, 19, 0)
s = 120: (0, 0, 0, 0, 23, 7, 7, 6, 4, 0, 13, 0)
s = 121: (0, 0, 0, 0, 16, 6, 11, 5, 4, 0, 22, 0)
s = 122: (0, 0, 0, 0, 29, 7, 7, 4, 4, 0, 34, 0)
s = 123: (0, 0, 0, 0, 18, 8, 10, 3, 7, 0, 26, 0)
s = 124: (0, 0, 0, 0, 29, 5, 9, 3, 7, 0, 24, 0)
s = 125: (0, 0, 0, 0, 20, 4, 11, 5, 5, 0, 27, 0)
s = 126: (0, 0, 0, 0, 30, 5, 6, 4, 5, 0, 28, 0)
s = 127: (0, 0, 0, 0, 16, 5, 10, 3, 6, 0, 31, 0)
s = 128: (0, 0, 0, 0, 25, 4, 11, 3, 7, 0, 22, 0)
s = 129: (0, 0, 0, 0, 22, 6, 12, 4, 6, 0, 18, 0)
s = 130: (0, 0, 0, 0, 15, 4, 8, 4, 5, 0, 25, 0)
s = 131: (0, 0, 0, 0, 23, 6, 7, 6, 4, 0, 26, 0)
s = 132: (0, 0, 0, 0, 19, 6, 8, 4, 8, 0, 27, 0)
s = 133: (0, 0, 0, 0, 22, 5, 7, 5, 6, 0, 17, 0)
s = 134: (0, 0, 0, 0, 29, 6, 7, 6, 7, 0, 24, 0)
s = 135: (0, 0, 0, 0, 20, 7, 7, 5, 5, 0, 26, 0)
s = 136: (0, 0, 0, 0, 25, 6, 6, 3, 5, 0, 26, 0)
s = 137: (0, 0, 0, 0, 17, 6, 7, 3, 3, 0, 25, 0)
s = 138: (0, 0, 0, 0, 26, 5, 6, 3, 4, 0, 19, 0)
s = 139: (0, 0, 0, 0, 15, 6, 7, 4, 4, 0, 26, 0)
s = 140: (0, 0, 0, 0, 22, 6, 11, 4, 9, 0, 26, 0)
s = 141: (0, 0, 0, 0, 24, 6, 13, 6, 5, 0, 15, 0)
s = 142: (0, 0, 0, 0, 18, 5, 10, 6, 4, 0, 32, 0)
s = 143: (0, 0, 0, 0, 17, 4, 7, 4, 5, 0, 25, 0)
s = 144: (0, 0, 0, 0, 24, 4, 7, 4, 4, 0, 19, 0)
s = 145: (0, 0, 0, 0, 31, 4, 10, 5, 6, 0, 17, 0)
s = 146: (0, 0, 0, 0, 25, 8, 10, 4, 6, 0, 29, 0)
s = 147: (0, 0, 0, 0, 17, 9, 8, 6, 5, 0, 24, 0)
s = 148: (0, 0, 0, 0, 19, 6, 9, 5, 4, 0, 20, 0)
s = 149: (0, 0, 0, 0, 35, 4, 6, 5, 4, 0, 30, 0)
s = 150: (0, 0, 0, 0, 18, 7, 8, 4, 5, 0, 38, 0)
s = 151: (0, 0, 0, 0, 20, 7, 7, 3, 4, 0, 35, 0)
s = 152: (0, 0, 0, 0, 14, 5, 7, 4, 7, 0, 40, 0)
s = 153: (0, 0, 0, 0, 15, 7, 7, 4, 6, 0, 18, 0)
s = 154: (0, 0, 0, 0, 16, 5, 7, 3, 5, 0, 14, 0)
s = 155: (0, 0, 0, 0, 24, 4, 5, 3, 5, 0, 22, 0)
s = 156: (0, 0, 0, 0, 22, 4, 9, 3, 7, 0, 36, 0)
s = 157: (0, 0, 0, 0, 25, 6, 8, 3, 4, 0, 16, 0)
s = 158: (0, 0, 0, 0, 13, 4, 8, 3, 7, 0, 20, 0)
s = 159: (0, 0, 0, 0, 18, 7, 8, 3, 4, 0, 24, 0)
s = 160: (0, 0, 0, 0, 22, 4, 11, 4, 4, 0, 26, 0)
s = 161: (0, 0, 0, 0, 15, 6, 12, 5, 11, 0, 28, 0)
s = 162: (0, 0, 0, 0, 24, 4, 8, 5, 6, 0, 14, 0)
s = 163: (0, 0, 0, 0, 23, 6, 9, 3, 5, 0, 29, 0)
s = 164: (0, 0, 0, 0, 25, 6, 10, 4, 7, 0, 22, 0)
s = 165: (0, 0, 0, 0, 27, 7, 11, 6, 9, 0, 23, 0)
s = 166: (0, 0, 0, 0, 18, 4, 7, 4, 5, 0, 26, 0)
s = 167: (0, 0, 0, 0, 18, 5, 10, 4, 9, 0, 21, 0)
s = 168: (0, 0, 0, 0, 12, 7, 9, 7, 5, 0, 25, 0)
s = 169: (0, 0, 0, 0, 19, 4, 11, 3, 6, 0, 35, 0)
s = 170: (0, 0, 0, 0, 12, 7, 8, 4, 4, 0, 22, 0)
s = 171: (0, 0, 0, 0, 20, 5, 10, 4, 4, 0, 25, 0)
s = 172: (0, 0, 0, 0, 16, 4, 9, 3, 4, 0, 23, 0)
s = 173: (0, 0, 0, 0, 21, 4, 12, 5, 7, 0, 26, 0)
s = 174: (0, 0, 0, 0, 20, 5, 17, 4, 6, 0, 19, 0)
s = 175: (0, 0, 0, 0, 25, 6, 7, 3, 7, 0, 27, 0)
s = 176: (0, 0, 0, 0, 20, 5, 6, 3, 10, 0, 27, 0)
s = 177: (0, 0, 0, 0, 17, 5, 11, 3, 6, 0, 22, 0)
s = 178: (0, 0, 0, 0, 20, 6, 9, 4, 3, 0, 28, 0)
s = 179: (0, 0, 0, 0, 27, 5, 5, 4, 5, 0, 20, 0)
s = 180: (0, 0, 0, 0, 21, 7, 7, 4, 4, 0, 44, 0)
s = 181: (0, 0, 0, 0, 18, 6, 8, 3, 5, 0, 22, 0)
s = 182: (0, 0, 0, 0, 18, 3, 9, 5, 3, 0, 25, 0)
s = 183: (0, 0, 0, 0, 13, 6, 9, 6, 7, 0, 37, 0)
s = 184: (0, 0, 0, 0, 14, 3, 9, 4, 4, 0, 28, 0)
s = 185: (0, 0, 0, 0, 28, 5, 7, 5, 4, 0, 43, 0)
s = 186: (0, 0, 0, 0, 24, 4, 10, 3, 3, 0, 13, 0)
s = 187: (0, 0, 0, 0, 15, 4, 8, 6, 8, 0, 23, 0)
s = 188: (0, 0, 0, 0, 20, 6, 9, 4, 7, 0, 27, 0)
s = 189: (0, 0, 0, 0, 23, 6, 13, 5, 4, 0, 26, 0)
s = 190: (0, 0, 0, 0, 16, 5, 7, 3, 5, 0, 36, 0)
s = 191: (0, 0, 0, 0, 30, 5, 5, 4, 6, 0, 34, 0)
s = 192: (0, 0, 0, 0, 13, 5, 11, 6, 7, 0, 25, 0)
s = 193: (0, 0, 0, 0, 30, 4, 7, 4, 6, 0, 45, 0)
s = 194: (0, 0, 0, 0, 24, 5, 10, 5, 5, 0, 36, 0)
s = 195: (0, 0, 0, 0, 13, 3, 9, 5, 4, 0, 34, 0)
s = 196: (0, 0, 0, 0, 16, 5, 7, 5, 6, 0, 25, 0)
s = 197: (0, 0, 0, 0, 19, 7, 14, 5, 3, 0, 15, 0)
s = 198: (0, 0, 0, 0, 18, 6, 8, 4, 4, 0, 22, 0)
s = 199: (0, 0, 0, 0, 16, 4, 12, 5, 7, 0, 35, 0)
s = 200: (0, 0, 0, 0, 14, 6, 10, 3, 5, 0, 30, 0)
------------------------------------------------------------------------
RESOURCE k = 3
s = 1: (0, 35, 22, 19, 0, 0, 0, 0, 0, 12, 0, 0)
s = 2: (0, 34, 25, 15, 0, 0, 0, 0, 0, 14, 0, 0)
s = 3: (0, 34, 23, 9, 0, 0, 0, 0, 0, 16, 0, 0)
s = 4: (0, 34, 13, 9, 0, 0, 0, 0, 0, 16, 0, 0)
s = 5: (0, 20, 29, 16, 0, 0, 0, 0, 0, 18, 0, 0)
s = 6: (0, 28, 31, 20, 0, 0, 0, 0, 0, 17, 0, 0)
s = 7: (0, 31, 31, 21, 0, 0, 0, 0, 0, 11, 0, 0)
s = 8: (0, 32, 19, 20, 0, 0, 0, 0, 0, 13, 0, 0)
s = 9: (0, 25, 15, 18, 0, 0, 0, 0, 0, 12, 0, 0)
s = 10: (0, 25, 17, 12, 0, 0, 0, 0, 0, 23, 0, 0)
s = 11: (0, 39, 28, 17, 0, 0, 0, 0, 0, 18, 0, 0)
s = 12: (0, 36, 23, 12, 0, 0, 0, 0, 0, 11, 0, 0)
s = 13: (0, 28, 19, 14, 0, 0, 0, 0, 0, 22, 0, 0)
s = 14: (0, 30, 20, 18, 0, 0, 0, 0, 0, 11, 0, 0)
s = 15: (0, 38, 15, 15, 0, 0, 0, 0, 0, 13, 0, 0)
s = 16: (0, 27, 22, 10, 0, 0, 0, 0, 0, 11, 0, 0)
s = 17: (0, 19, 17, 13, 0, 0, 0, 0, 0, 9, 0, 0)
s = 18: (0, 39, 25, 13, 0, 0, 0, 0, 0, 12, 0, 0)
s = 19: (0, 33, 24, 8, 0, 0, 0, 0, 0, 19, 0, 0)
s = 20: (0, 35, 16, 14, 0, 0, 0, 0, 0, 14, 0, 0)
s = 21: (0, 30, 15, 9, 0, 0, 0, 0, 0, 12, 0, 0)
s = 22: (0, 28, 21, 25, 0, 0, 0, 0, 0, 17, 0, 0)
s = 23: (0, 18, 21, 16, 0, 0, 0, 0, 0, 20, 0, 0)
s = 24: (0, 40, 37, 19, 0, 0, 0, 0, 0, 14, 0, 0)
s = 25: (0, 50, 15, 10, 0, 0, 0, 0, 0, 13, 0, 0)
s = 26: (0, 19, 23, 14, 0, 0, 0, 0, 0, 12, 0, 0)
s = 27: (0, 29, 18, 8, 0, 0, 0, 0, 0, 18, 0, 0)
s = 28: (0, 34, 16, 19, 0, 0, 0, 0, 0, 13, 0, 0)
s = 29: (0, 26, 18, 23, 0, 0, 0, 0, 0, 17, 0, 0)
s = 30: (0, 37, 15, 19, 0, 0, 0, 0, 0, 19, 0, 0)
s = 31: (0, 23, 15, 15, 0, 0, 0, 0, 0, 15, 0, 0)
s = 32: (0, 33, 20, 20, 0, 0, 0, 0, 0, 10, 0, 0)
s = 33: (0, 27, 14, 17, 0, 0, 0, 0, 0, 9, 0, 0)
s = 34: (0, 31, 20, 14, 0, 0, 0, 0, 0, 15, 0, 0)
s = 35: (0, 45, 15, 22, 0, 0, 0, 0, 0, 16, 0, 0)
s = 36: (0, 38, 17, 11, 0, 0, 0, 0, 0, 22, 0, 0)
s = 37: (0, 19, 15, 20, 0, 0, 0, 0, 0, 18, 0, 0)
s = 38: (0, 42, 25, 18, 0, 0, 0, 0, 0, 21, 0, 0)
s = 39: (0, 37, 11, 15, 0, 0, 0, 0, 0, 23, 0, 0)
s = 40: (0, 28, 14, 12, 0, 0, 0, 0, 0, 16, 0, 0)
s = 41: (0, 35, 24, 15, 0, 0, 0, 0, 0, 18, 0, 0)
s = 42: (0, 19, 26, 19, 0, 0, 0, 0, 0, 28, 0, 0)
s = 43: (0, 25, 22, 18, 0, 0, 0, 0, 0, 9, 0, 0)
s = 44: (0, 19, 17, 16, 0, 0, 0, 0, 0, 18, 0, 0)
s = 45: (0, 41, 19, 19, 0, 0, 0, 0, 0, 14, 0, 0)
s = 46: (0, 36, 15, 11, 0, 0, 0, 0, 0, 12, 0, 0)
s = 47: (0, 32, 20, 14, 0, 0, 0, 0, 0, 12, 0, 0)
s = 48: (0, 28, 16, 10, 0, 0, 0, 0, 0, 14, 0, 0)
s = 49: (0, 29, 31, 16, 0, 0, 0, 0, 0, 30, 0, 0)
s = 50: (0, 37, 17, 21, 0, 0, 0, 0, 0, 10, 0, 0)
s = 51: (0, 26, 20, 14, 0, 0, 0, 0, 0, 14, 0, 0)
s = 52: (0, 27, 18, 18, 0, 0, 0, 0, 0, 11, 0, 0)
s = 53: (0, 41, 12, 13, 0, 0, 0, 0, 0, 22, 0, 0)
s = 54: (0, 38, 18, 14, 0, 0, 0, 0, 0, 12, 0, 0)
s = 55: (0, 35, 18, 10, 0, 0, 0, 0, 0, 8, 0, 0)
s = 56: (0, 31, 20, 19, 0, 0, 0, 0, 0, 16, 0, 0)
s = 57: (0, 53, 24, 9, 0, 0, 0, 0, 0, 14, 0, 0)
s = 58: (0, 22, 18, 20, 0, 0, 0, 0, 0, 10, 0, 0)
s = 59: (0, 28, 17, 13, 0, 0, 0, 0, 0, 14, 0, 0)
s = 60: (0, 35, 17, 20, 0, 0, 0, 0, 0, 18, 0, 0)
s = 61: (0, 40, 22, 10, 0, 0, 0, 0, 0, 13, 0, 0)
s = 62: (0, 54, 14, 16, 0, 0, 0, 0, 0, 14, 0, 0)
s = 63: (0, 36, 27, 13, 0, 0, 0, 0, 0, 11, 0, 0)
s = 64: (0, 44, 21, 11, 0, 0, 0, 0, 0, 12, 0, 0)
s = 65: (0, 33, 14, 9, 0, 0, 0, 0, 0, 17, 0, 0)
s = 66: (0, 29, 21, 14, 0, 0, 0, 0, 0, 14, 0, 0)
s = 67: (0, 26, 15, 11, 0, 0, 0, 0, 0, 22, 0, 0)
s = 68: (0, 37, 20, 16, 0, 0, 0, 0, 0, 16, 0, 0)
s = 69: (0, 38, 27, 15, 0, 0, 0, 0, 0, 21, 0, 0)
s = 70: (0, 33, 28, 15, 0, 0, 0, 0, 0, 14, 0, 0)
s = 71: (0, 32, 26, 16, 0, 0, 0, 0, 0, 22, 0, 0)
s = 72: (0, 27, 23, 20, 0, 0, 0, 0, 0, 12, 0, 0)
s = 73: (0, 58, 25, 16, 0, 0, 0, 0, 0, 12, 0, 0)
s = 74: (0, 27, 13, 11, 0, 0, 0, 0, 0, 17, 0, 0)
s = 75: (0, 21, 15, 10, 0, 0, 0, 0, 0, 16, 0, 0)
s = 76: (0, 23, 21, 17, 0, 0, 0, 0, 0, 19, 0, 0)
s = 77: (0, 43, 15, 16, 0, 0, 0, 0, 0, 11, 0, 0)
s = 78: (0, 26, 18, 21, 0, 0, 0, 0, 0, 22, 0, 0)
s = 79: (0, 35, 33, 20, 0, 0, 0, 0, 0, 15, 0, 0)
s = 80: (0, 22, 26, 10, 0, 0, 0, 0, 0, 20, 0, 0)
s = 81: (0, 25, 25, 10, 0, 0, 0, 0, 0, 20, 0, 0)
s = 82: (0, 20, 28, 16, 0, 0, 0, 0, 0, 17, 0, 0)
s = 83: (0, 28, 16, 8, 0, 0, 0, 0, 0, 16, 0, 0)
s = 84: (0, 28, 18, 17, 0, 0, 0, 0, 0, 23, 0, 0)
s = 85: (0, 31, 29, 17, 0, 0, 0, 0, 0, 13, 0, 0)
s = 86: (0, 31, 16, 12, 0, 0, 0, 0, 0, 14, 0, 0)
s = 87: (0, 34, 21, 11, 0, 0, 0, 0, 0, 21, 0, 0)
s = 88: (0, 40, 20, 21, 0, 0, 0, 0, 0, 16, 0, 0)
s = 89: (0, 42, 33, 8, 0, 0, 0, 0, 0, 10, 0, 0)
s = 90: (0, 21, 25, 13, 0, 0, 0, 0, 0, 8, 0, 0)
s = 91: (0, 36, 26, 14, 0, 0, 0, 0, 0, 18, 0, 0)
s = 92: (0, 29, 14, 12, 0, 0, 0, 0, 0, 19, 0, 0)
s = 93: (0, 29, 17, 18, 0, 0, 0, 0, 0, 16, 0, 0)
s = 94: (0, 41, 20, 19, 0, 0, 0, 0, 0, 16, 0, 0)
s = 95: (0, 26, 19, 11, 0, 0, 0, 0, 0, 9, 0, 0)
s = 96: (0, 29, 11, 18, 0, 0, 0, 0, 0, 12, 0, 0)
s = 97: (0, 36, 16, 14, 0, 0, 0, 0, 0, 13, 0, 0)
s = 98: (0, 44, 20, 14, 0, 0, 0, 0, 0, 10, 0, 0)
s = 99: (0, 40, 22, 23, 0, 0, 0, 0, 0, 16, 0, 0)
s = 100: (0, 29, 16, 21, 0, 0, 0, 0, 0, 15, 0, 0)
s = 101: (0, 39, 26, 17, 0, 0, 0, 0, 0, 10, 0, 0)
s = 102: (0, 34, 20, 12, 0, 0, 0, 0, 0, 17, 0, 0)
s = 103: (0, 42, 22, 15, 0, 0, 0, 0, 0, 13, 0, 0)
s = 104: (0, 39, 11, 11, 0, 0, 0, 0, 0, 12, 0, 0)
s = 105: (0, 36, 15, 13, 0, 0, 0, 0, 0, 10, 0, 0)
s = 106: (0, 30, 15, 13, 0, 0, 0, 0, 0, 25, 0, 0)
s = 107: (0, 23, 25, 13, 0, 0, 0, 0, 0, 14, 0, 0)
s = 108: (0, 33, 16, 18, 0, 0, 0, 0, 0, 14, 0, 0)
s = 109: (0, 21, 11, 9, 0, 0, 0, 0, 0, 21, 0, 0)
s = 110: (0, 53, 20, 18, 0, 0, 0, 0, 0, 11, 0, 0)
s = 111: (0, 37, 14, 21, 0, 0, 0, 0, 0, 9, 0, 0)
s = 112: (0, 31, 26, 23, 0, 0, 0, 0, 0, 15, 0, 0)
s = 113: (0, 20, 32, 17, 0, 0, 0, 0, 0, 17, 0, 0)
s = 114: (0, 35, 21, 10, 0, 0, 0, 0, 0, 16, 0, 0)
s = 115: (0, 20, 21, 16, 0, 0, 0, 0, 0, 15, 0, 0)
s = 116: (0, 33, 24, 19, 0, 0, 0, 0, 0, 13, 0, 0)
s = 117: (0, 35, 29, 19, 0, 0, 0, 0, 0, 17, 0, 0)
s = 118: (0, 46, 21, 11, 0, 0, 0, 0, 0, 16, 0, 0)
s = 119: (0, 44, 25, 10, 0, 0, 0, 0, 0, 13, 0, 0)
s = 120: (0, 28, 24, 23, 0, 0, 0, 0, 0, 15, 0, 0)
s = 121: (0, 51, 33, 18, 0, 0, 0, 0, 0, 19, 0, 0)
s = 122: (0, 40, 26, 13, 0, 0, 0, 0, 0, 24, 0, 0)
s = 123: (0, 21, 12, 12, 0, 0, 0, 0, 0, 20, 0, 0)
s = 124: (0, 30, 11, 19, 0, 0, 0, 0, 0, 20, 0, 0)
s = 125: (0, 32, 21, 18, 0, 0, 0, 0, 0, 13, 0, 0)
s = 126: (0, 17, 24, 12, 0, 0, 0, 0, 0, 14, 0, 0)
s = 127: (0, 38, 18, 12, 0, 0, 0, 0, 0, 18, 0, 0)
s = 128: (0, 40, 19, 12, 0, 0, 0, 0, 0, 16, 0, 0)
s = 129: (0, 25, 25, 12, 0, 0, 0, 0, 0, 22, 0, 0)
s = 130: (0, 58, 17, 14, 0, 0, 0, 0, 0, 18, 0, 0)
s = 131: (0, 46, 14, 18, 0, 0, 0, 0, 0, 19, 0, 0)
s = 132: (0, 41, 22, 19, 0, 0, 0, 0, 0, 22, 0, 0)
s = 133: (0, 23, 14, 11, 0, 0, 0, 0, 0, 13, 0, 0)
s = 134: (0, 39, 19, 15, 0, 0, 0, 0, 0, 15, 0, 0)
s = 135: (0, 17, 13, 9, 0, 0, 0, 0, 0, 12, 0, 0)
s = 136: (0, 33, 21, 17, 0, 0, 0, 0, 0, 11, 0, 0)
s = 137: (0, 35, 15, 11, 0, 0, 0, 0, 0, 20, 0, 0)
s = 138: (0, 23, 23, 21, 0, 0, 0, 0, 0, 15, 0, 0)
s = 139: (0, 30, 24, 20, 0, 0, 0, 0, 0, 21, 0, 0)
s = 140: (0, 26, 26, 15, 0, 0, 0, 0, 0, 16, 0, 0)
s = 141: (0, 24, 26, 20, 0, 0, 0, 0, 0, 17, 0, 0)
s = 142: (0, 23, 16, 10, 0, 0, 0, 0, 0, 19, 0, 0)
s = 143: (0, 32, 20, 11, 0, 0, 0, 0, 0, 16, 0, 0)
s = 144: (0, 54, 22, 16, 0, 0, 0, 0, 0, 10, 0, 0)
s = 145: (0, 28, 18, 14, 0, 0, 0, 0, 0, 15, 0, 0)
s = 146: (0, 34, 16, 18, 0, 0, 0, 0, 0, 14, 0, 0)
s = 147: (0, 37, 19, 13, 0, 0, 0, 0, 0, 28, 0, 0)
s = 148: (0, 32, 22, 24, 0, 0, 0, 0, 0, 23, 0, 0)
s = 149: (0, 40, 13, 17, 0, 0, 0, 0, 0, 10, 0, 0)
s = 150: (0, 41, 31, 18, 0, 0, 0, 0, 0, 17, 0, 0)
s = 151: (0, 55, 29, 18, 0, 0, 0, 0, 0, 13, 0, 0)
s = 152: (0, 25, 13, 15, 0, 0, 0, 0, 0, 16, 0, 0)
s = 153: (0, 25, 20, 13, 0, 0, 0, 0, 0, 13, 0, 0)
s = 154: (0, 36, 24, 15, 0, 0, 0, 0, 0, 11, 0, 0)
s = 155: (0, 28, 23, 17, 0, 0, 0, 0, 0, 21, 0, 0)
s = 156: (0, 51, 22, 21, 0, 0, 0, 0, 0, 25, 0, 0)
s = 157: (0, 19, 20, 17, 0, 0, 0, 0, 0, 19, 0, 0)
s = 158: (0, 28, 19, 12, 0, 0, 0, 0, 0, 12, 0, 0)
s = 159: (0, 33, 11, 13, 0, 0, 0, 0, 0, 17, 0, 0)
s = 160: (0, 26, 15, 18, 0, 0, 0, 0, 0, 17, 0, 0)
s = 161: (0, 38, 13, 9, 0, 0, 0, 0, 0, 12, 0, 0)
s = 162: (0, 30, 22, 12, 0, 0, 0, 0, 0, 15, 0, 0)
s = 163: (0, 40, 14, 10, 0, 0, 0, 0, 0, 16, 0, 0)
s = 164: (0, 39, 28, 14, 0, 0, 0, 0, 0, 22, 0, 0)
s = 165: (0, 28, 19, 11, 0, 0, 0, 0, 0, 11, 0, 0)
s = 166: (0, 31, 23, 16, 0, 0, 0, 0, 0, 11, 0, 0)
s = 167: (0, 30, 30, 18, 0, 0, 0, 0, 0, 12, 0, 0)
s = 168: (0, 30, 18, 20, 0, 0, 0, 0, 0, 16, 0, 0)
s = 169: (0, 35, 19, 10, 0, 0, 0, 0, 0, 11, 0, 0)
s = 170: (0, 35, 12, 23, 0, 0, 0, 0, 0, 16, 0, 0)
s = 171: (0, 34, 21, 11, 0, 0, 0, 0, 0, 25, 0, 0)
s = 172: (0, 55, 20, 13, 0, 0, 0, 0, 0, 18, 0, 0)
s = 173: (0, 24, 18, 12, 0, 0, 0, 0, 0, 16, 0, 0)
s = 174: (0, 34, 11, 16, 0, 0, 0, 0, 0, 12, 0, 0)
s = 175: (0, 23, 22, 13, 0, 0, 0, 0, 0, 11, 0, 0)
s = 176: (0, 42, 16, 11, 0, 0, 0, 0, 0, 16, 0, 0)
s = 177: (0, 21, 35, 14, 0, 0, 0, 0, 0, 15, 0, 0)
s = 178: (0, 33, 24, 10, 0, 0, 0, 0, 0, 17, 0, 0)
s = 179: (0, 23, 15, 17, 0, 0, 0, 0, 0, 17, 0, 0)
s = 180: (0, 26, 29, 15, 0, 0, 0, 0, 0, 15, 0, 0)
s = 181: (0, 32, 18, 16, 0, 0, 0, 0, 0, 14, 0, 0)
s = 182: (0, 44, 13, 14, 0, 0, 0, 0, 0, 11, 0, 0)
s = 183: (0, 21, 13, 12, 0, 0, 0, 0, 0, 19, 0, 0)
s = 184: (0, 22, 18, 16, 0, 0, 0, 0, 0, 9, 0, 0)
s = 185: (0, 22, 24, 11, 0, 0, 0, 0, 0, 26, 0, 0)
s = 186: (0, 23, 19, 8, 0, 0, 0, 0, 0, 29, 0, 0)
s = 187: (0, 20, 32, 15, 0, 0, 0, 0, 0, 25, 0, 0)
s = 188: (0, 37, 27, 21, 0, 0, 0, 0, 0, 17, 0, 0)
s = 189: (0, 24, 15, 14, 0, 0, 0, 0, 0, 17, 0, 0)
s = 190: (0, 24, 29, 11, 0, 0, 0, 0, 0, 15, 0, 0)
s = 191: (0, 20, 20, 14, 0, 0, 0, 0, 0, 9, 0, 0)
s = 192: (0, 23, 17, 10, 0, 0, 0, 0, 0, 14, 0, 0)
s = 193: (0, 35, 24, 11, 0, 0, 0, 0, 0, 11, 0, 0)
s = 194: (0, 48, 24, 18, 0, 0, 0, 0, 0, 9, 0, 0)
s = 195: (0, 51, 16, 26, 0, 0, 0, 0, 0, 12, 0, 0)
s = 196: (0, 31, 28, 18, 0, 0, 0, 0, 0, 11, 0, 0)
s = 197: (0, 51, 33, 13, 0, 0, 0, 0, 0, 11, 0, 0)
s = 198: (0, 31, 23, 14, 0, 0, 0, 0, 0, 12, 0, 0)
s = 199: (0, 42, 28, 9, 0, 0, 0, 0, 0, 14, 0, 0)
s = 200: (0, 41, 18, 20, 0, 0, 0, 0, 0, 19, 0, 0)
************************************************************************
ES/LS-VALUES:
jobnr.   ES(i)    LS(i)
------------------------------------------------------------------------
  0        0        0
  1        0       58
  2        0       58
  3        0       58
  4        3       62
  5        7       66
  6        3       68
  7        7       66
  8       10       73
  9       10       70
 10        8       68
 11       16       76
************************************************************************
BIG-M-VALUES:
M1 = 39, M2 = 203
************************************************************************
